488,140
765,-127
850,529
1028,229
625,761
1108,545
415,213
704,554
1051,286
494,501
823,360
515,-107
664,382
681,136
733,478
436,887
681,466
261,406
321,766
633,441
975,555
727,110
664,382
801,406
653,415
1108,623
868,501
1069,688
773,121
668,432
1001,569
672,378
751,503
597,490
880,470
681,196
364,842
